(set-logic QF_S)
(declare-fun V16 () String )
(declare-fun V4 () String )
(declare-fun V18 () String )
(declare-fun V17 () String )
(declare-fun V19 () String )
(declare-fun V13 () String )
(declare-fun V14 () String )
(declare-fun V1 () String )
(declare-fun V20 () String )
(declare-fun V12 () String )
(declare-fun V3 () String )
(declare-fun V8 () String )
(declare-fun V15 () String )
(declare-fun V11 () String )
(declare-fun V9 () String )
(declare-fun V21 () String )
(assert (= (str.++ V3 V4 ) (str.++ (str.++ V16 V17 ) V18 ) ) )
(assert (= (str.++ V3 V4 ) (str.++ (str.++ V13 "/" ) V14 ) ) )
(assert (= (str.++ V3 V4 ) (str.++ (str.++ V19 "/" ) V20 ) ) )
(assert (= (str.++ V16 V17 ) (str.++ (str.++ V11 "@" ) V12 ) ) )
(assert (= (str.++ V16 V17 ) (str.++ (str.++ (str.++ V8 "+" ) V9 ) V21 ) ) )
(assert (= (str.++ (str.++ V1 V3 ) V4 ) (str.++ "mongodb://" V15 ) ) )
( check-sat )
